CPXPARAM_Read_DataCheck                          1
Found incumbent of value 0.000000 after 0.02 sec. (2.56 ticks)
Tried aggregator 1 time.
MIP Presolve modified 1 coefficients.
Reduced MIP has 10031 rows, 100010 columns, and 500030 nonzeros.
Reduced MIP has 100010 binaries, 0 generals, 0 SOSs, and 0 indicators.
Presolve time = 0.30 sec. (204.28 ticks)
Tried aggregator 1 time.
Reduced MIP has 10031 rows, 100010 columns, and 500030 nonzeros.
Reduced MIP has 100010 binaries, 0 generals, 0 SOSs, and 0 indicators.
Presolve time = 0.42 sec. (242.38 ticks)
Probing time = 0.08 sec. (20.55 ticks)
Clique table members: 104978.
MIP emphasis: balance optimality and feasibility.
MIP search method: dynamic search.
Parallel mode: deterministic, using up to 4 threads.
Root relaxation solution time = 1.45 sec. (844.07 ticks)

        Nodes                                         Cuts/
   Node  Left     Objective  IInf  Best Integer    Best Bound    ItCnt     Gap

*     0+    0                            0.0000   619395.0000              --- 
*     0+    0                        43559.0000   619395.0000              --- 
      0     0   173989.2067    10    43559.0000   173989.2067       15  299.43%
*     0+    0                       118272.0000   173989.2067            47.11%
      0     0   160623.5560  5003   118272.0000    Cuts: 2607     6260   35.81%
*     0+    0                       118958.0000   160623.5560            35.03%
      0     0   147005.3505  7579   118958.0000    Cuts: 2607    14044   23.58%
      0     0   138304.4756  9693   118958.0000    Cuts: 2607    25284   16.26%
*     0+    0                       118959.0000   138304.4756            16.26%
      0     0   132553.7264 13069   118959.0000    Cuts: 2607    33829   11.43%
      0     0   128506.9050 16307   118959.0000    Cuts: 2607    41612    8.03%
      0     0   125896.9819 18817   118959.0000    Cuts: 2607    50275    5.83%
      0     0   124166.0077 21374   118959.0000    Cuts: 2607    59717    4.38%
      0     0   123002.3049 24068   118959.0000    Cuts: 2607    66487    3.40%
      0     0        cutoff         118959.0000   118959.0000    74308    0.00%
Elapsed time = 462.13 sec. (288473.71 ticks, tree = 0.01 MB, solutions = 5)

Clique cuts applied:  18402
Cover cuts applied:  7
Implied bound cuts applied:  5
Mixed integer rounding cuts applied:  145

Root node processing (before b&c):
  Real time             =  462.17 sec. (288482.43 ticks)
Parallel b&c, 4 threads:
  Real time             =    0.00 sec. (0.00 ticks)
  Sync time (average)   =    0.00 sec.
  Wait time (average)   =    0.00 sec.
                          ------------
Total (root+branch&cut) =  462.17 sec. (288482.43 ticks)
